NAME: kroA100
TYPE: TSP
COMMENT: 100-city problem A (Krolak/Felts/Nelson)
DIMENSION: 100
EDGE_WEIGHT_TYPE : EUC_2D
NODE_COORD_SECTION
1 0 0
2 1 0
3 0 1
4 1 1
5 100 100
6 101 100
7 101 101
8 100 101
EOF